AES/1_3_4/ssaes_r1-20_c3_rw1_e4_f0_k1-20_aes_min_box_aes_mc_bidirectional/ExperimentMinisat_r11_k13cnf_2011-10-29-154040/Result
WARNING: for repeatability, setting FPU to use double precision
============================[ Problem Statistics ]=============================
|                                                                             |
|  Number of variables:           652                                         |
|  Number of clauses:            2600                                         |
|  Parse time:                   0.00 s                                       |
|  Eliminated clauses:           0.01 Mb                                      |
|  Simplification time:          0.00 s                                       |
|                                                                             |
=============================[ Search Statistics ]==============================
| Conflicts  |          ORIGINAL         |          LEARNT          | Progress |
|            |    Vars  Clauses Literals |    Limit  Clauses Lit/Cl |          |
================================================================================
|        100 |     440     2000     6680 |      733      100     10 | 10.430 % |
|        250 |     440     2000     6680 |      806      250     11 | 10.430 % |
|        475 |     440     2000     6680 |      887      475     12 | 10.430 % |
|        812 |     440     2000     6680 |      976      812     12 | 10.430 % |
|       1318 |     440     2000     6680 |     1073      785     10 | 10.430 % |
|       2077 |     440     2000     6680 |     1181      967      9 | 10.430 % |
|       3216 |     440     2000     6680 |     1299      846      7 | 10.430 % |
|       4924 |     440     2000     6680 |     1429     1158      8 | 10.430 % |
===============================================================================
restarts              : 30
conflicts             : 6354           (27158 /sec)
decisions             : 7456           (0.00 % random) (31868 /sec)
propagations          : 1155184        (4937443 /sec)
conflict literals     : 73305          (43.92 % deleted)
Memory used           : 8.00 MB
CPU time              : 0.233964 s

SATISFIABLE
